Total weight: 1207.098418680691
Route 1: 0 96 59 93 85 16 61 0 
Route 2: 0 18 83 45 46 8 84 17 5 60 89 0 
Route 3: 0 6 99 57 15 42 87 13 0 
Route 4: 0 88 10 20 51 79 3 77 0 
Route 5: 0 53 40 2 97 95 94 58 0 
Route 6: 0 73 41 22 75 56 4 74 72 21 0 
Route 7: 0 27 52 69 1 50 29 24 68 80 12 0 
Route 8: 0 82 48 47 36 49 64 90 32 70 0 
Route 9: 0 92 98 91 44 86 38 43 14 100 37 0 
Route 10: 0 26 54 39 23 67 55 25 0 
Route 11: 0 31 62 63 11 19 7 0 
Route 12: 0 35 71 65 66 30 0 
Route 13: 0 28 76 33 81 9 78 34 0 
